InboundTrucks  = 40;
OutboundTrucks = 20;
ReleaseTime    = [8,91,41,53,0,99,36,41,96,89,88,87,60,79,96,34,57,61,110,71,78,60,17,118,72,61,7,68,29,27,115,88,118,24,1,38,13,30,71,34];
UnloadTime     = [3,8,1,10,2,7,9,9,9,5,8,2,10,5,9,6,9,7,4,1,7,8,1,7,5,1,4,7,3,4,9,1,5,10,6,2,5,6,4,5];
LoadTime       = [10,1,3,8,7,10,5,10,9,1,2,6,9,9,3,2,4,1,9,6];
TransferTime   = [| 0,3,1,0,0,0,3,0,0,0,3,0,0,1,0,0,1,0,0,2 | 5,0,0,0,0,0,0,0,0,0,0,3,3,0,0,1,1,3,0,0 | 2,0,0,0,0,0,0,0,0,0,3,2,4,2,0,1,0,5,0,0 | 0,5,0,2,0,0,0,0,0,2,0,3,0,3,0,0,0,0,4,0 | 0,0,0,0,4,3,0,1,5,0,0,0,0,0,4,0,2,0,2,0 | 0,2,0,5,0,0,0,0,0,5,0,0,0,5,2,0,0,0,1,0 | 0,0,2,0,0,0,1,0,0,0,5,0,0,0,0,0,5,0,0,2 | 3,0,0,0,1,2,0,0,0,0,0,5,5,0,1,1,0,3,0,2 | 4,0,0,0,0,0,0,1,0,0,0,5,5,0,0,1,0,1,0,2 | 4,0,0,0,0,0,0,0,0,0,0,2,4,0,0,4,0,5,0,0 | 1,2,0,1,0,0,0,0,0,3,0,0,0,1,0,0,0,0,4,0 | 4,0,0,0,0,0,0,0,0,0,0,2,4,0,0,2,0,5,0,0 | 0,3,5,0,0,0,4,0,0,0,3,0,0,0,0,0,1,0,0,3 | 0,0,4,0,0,0,3,0,1,0,4,0,0,0,0,0,5,0,0,3 | 3,0,0,0,0,0,0,0,3,0,0,5,1,0,0,4,0,3,0,0 | 0,0,0,0,1,3,0,1,5,0,2,0,3,0,2,0,0,0,0,0 | 0,0,1,0,0,0,4,0,0,0,4,0,0,0,0,0,2,0,0,1 | 1,3,0,0,1,2,0,3,3,0,0,0,0,0,1,0,0,0,2,0 | 0,0,0,0,4,3,0,2,5,0,0,0,0,0,4,0,0,0,0,0 | 1,3,0,0,4,1,0,1,4,0,0,0,0,0,3,0,0,0,0,0 | 0,0,0,0,2,1,2,1,3,0,0,0,0,0,5,0,0,0,2,0 | 0,0,5,0,0,0,4,0,0,0,3,0,0,0,0,1,1,0,0,3 | 0,3,1,3,0,0,0,0,0,3,2,0,0,2,0,0,0,0,2,0 | 0,1,5,0,3,0,3,3,0,0,4,0,0,0,2,0,3,0,2,1 | 0,0,3,0,4,5,0,5,4,0,0,0,0,0,3,0,0,0,0,0 | 0,5,0,5,0,0,0,1,0,4,0,0,0,1,0,0,0,0,2,0 | 0,1,0,3,0,0,0,0,0,3,0,0,0,5,0,0,0,0,3,0 | 0,4,0,1,0,0,2,0,3,4,0,0,0,4,0,0,0,0,4,0 | 0,5,0,4,3,0,0,0,0,3,2,0,0,5,0,0,0,0,1,0 | 0,3,0,2,0,3,0,0,0,1,0,0,0,3,0,0,0,3,2,0 | 0,0,2,0,0,0,2,1,1,0,3,2,0,0,0,0,3,0,0,4 | 0,0,0,0,3,5,0,3,1,0,0,0,0,0,4,0,0,0,0,0 | 3,0,0,0,0,0,0,0,0,0,0,3,5,0,1,3,0,4,0,0 | 0,2,0,3,0,2,0,0,0,4,0,0,0,3,0,0,0,0,5,0 | 0,0,2,0,0,0,5,0,0,0,4,0,0,0,2,0,4,0,0,4 | 0,2,0,0,4,3,0,4,4,0,3,0,0,0,1,0,0,0,0,0 | 0,0,0,0,4,1,0,4,1,1,0,0,0,0,3,0,0,0,0,0 | 1,1,0,0,0,0,0,0,0,3,0,5,2,0,0,3,0,1,0,0 | 5,3,0,0,0,3,0,0,0,0,0,3,1,0,0,1,0,4,0,0 | 0,0,4,0,0,0,4,0,0,0,5,0,0,0,0,0,4,0,1,3 |];
